Solver command line: ['/usr/local/bin/gurobi.sh']

Set parameter WLSAccessID
Set parameter WLSSecret
Set parameter LicenseID to value 2606900
Academic license 2606900 - for non-commercial use only - registered to so___@htwk-leipzig.de
Read LP format model from file /var/folders/jf/5sh4zzv94dxbcz8g7tg2jq5h0000gn/T/tmpoh68k54z.pyomo.lp
Reading time = 3.85 seconds
objective: 948674 rows, 878399 columns, 2134496 nonzeros
Set parameter TimeLimit to value 5000
Set parameter MIPGap to value 0.08
Gurobi Optimizer version 12.0.1 build v12.0.1rc0 (mac64[rosetta2] - Darwin 24.3.0 24D70)

CPU model: Apple M3
Thread count: 8 physical cores, 8 logical processors, using up to 8 threads

Non-default parameters:
TimeLimit  5000
MIPGap  0.08

Academic license 2606900 - for non-commercial use only - registered to so___@htwk-leipzig.de
Optimize a model with 948674 rows, 878399 columns and 2134496 nonzeros
Model fingerprint: 0x04a3c3ac
Model has 8783 quadratic constraints
Variable types: 755424 continuous, 122975 integer (105408 binary)
Coefficient statistics:
  Matrix range     [6e-03, 1e+03]
  QMatrix range    [1e+00, 1e+00]
  Objective range  [1e-02, 4e+02]
  Bounds range     [1e+00, 3e+00]
  RHS range        [8e-05, 1e+04]
Presolve removed 781800 rows and 676389 columns
Presolve time: 0.90s
Presolved: 166874 rows, 202010 columns, 553336 nonzeros
Variable types: 131741 continuous, 70269 integer (61485 binary)
Performing another presolve...
Presolve removed 70271 rows and 70271 columns (presolve time = 9s)...
Presolve removed 70271 rows and 70271 columns
Presolve time: 8.57s
Deterministic concurrent LP optimizer: primal and dual simplex
Showing primal log only...


Root simplex log...

Iteration    Objective       Primal Inf.    Dual Inf.      Time
       0    1.9447399e+07   1.164760e+08   8.355153e+13     11s
Concurrent spin time: 0.00s

Solved with dual simplex

Root simplex log...

Iteration    Objective       Primal Inf.    Dual Inf.      Time
   64721    1.2810020e+07   0.000000e+00   0.000000e+00     13s

Root relaxation: objective 1.281002e+07, 64721 iterations, 2.19 seconds (1.57 work units)
Total elapsed time = 12.67s (DegenMoves)

    Nodes    |    Current Node    |     Objective Bounds      |     Work
 Expl Unexpl |  Obj  Depth IntInf | Incumbent    BestBd   Gap | It/Node Time

     0     0 1.2810e+07    0  462          - 1.2810e+07      -     -   15s
     0     0 1.2814e+07    0  580          - 1.2814e+07      -     -   64s
     0     0 1.2814e+07    0  586          - 1.2814e+07      -     -   66s
     0     0 1.2814e+07    0  587          - 1.2814e+07      -     -   66s
     0     0 1.2816e+07    0  508          - 1.2816e+07      -     -   68s
     0     0 1.2816e+07    0  524          - 1.2816e+07      -     -   69s
     0     0 1.2816e+07    0  522          - 1.2816e+07      -     -   69s
     0     0 1.2816e+07    0  524          - 1.2816e+07      -     -   69s
     0     0 1.2816e+07    0  570          - 1.2816e+07      -     -   70s
     0     0 1.2816e+07    0  569          - 1.2816e+07      -     -   72s
     0     0 1.2816e+07    0  573          - 1.2816e+07      -     -   73s
     0     0 1.2816e+07    0  572          - 1.2816e+07      -     -   73s
     0     0 1.2817e+07    0  542          - 1.2817e+07      -     -   74s
     0     0 1.2817e+07    0  553          - 1.2817e+07      -     -   75s
     0     0 1.2817e+07    0  556          - 1.2817e+07      -     -   75s
     0     0 1.2817e+07    0  561          - 1.2817e+07      -     -   75s
     0     0 1.2817e+07    0  529          - 1.2817e+07      -     -   76s
     0     0 1.2817e+07    0  541          - 1.2817e+07      -     -   77s
     0     0 1.2817e+07    0  540          - 1.2817e+07      -     -   78s
     0     0 1.2817e+07    0  538          - 1.2817e+07      -     -   78s
     0     0 1.2817e+07    0  528          - 1.2817e+07      -     -   79s
     0     0 1.2817e+07    0  539          - 1.2817e+07      -     -   79s
     0     0 1.2817e+07    0  543          - 1.2817e+07      -     -   80s
     0     0 1.2817e+07    0  548          - 1.2817e+07      -     -   81s
     0     0 1.2817e+07    0  544          - 1.2817e+07      -     -   81s
     0     0 1.2817e+07    0  543          - 1.2817e+07      -     -   81s
     0     0 1.2817e+07    0  537          - 1.2817e+07      -     -   82s
     0     0 1.2817e+07    0  422          - 1.2817e+07      -     -   85s
     0     2 1.2817e+07    0  406          - 1.2817e+07      -     -   97s
    23    64 1.2818e+07    5  461          - 1.2817e+07      -   135  100s
   142   374 1.2818e+07   14  450          - 1.2817e+07      -  29.5  107s
   373   861 1.2818e+07   28  450          - 1.2817e+07      -  11.9  117s
   860  1939 1.2818e+07   66  446          - 1.2817e+07      -   8.7  129s
  1938  2541 1.2819e+07  175  433          - 1.2817e+07      -   8.5  135s
  2540  3101 1.2819e+07  230  430          - 1.2817e+07      -   8.2  142s
  3100  3677 1.2819e+07  286  415          - 1.2817e+07      -   8.3  148s
  3676  4159 1.2820e+07  340  413          - 1.2817e+07      -   8.0  153s
  4158  4591 1.2820e+07  381  391          - 1.2817e+07      -   8.1  158s
  4590  5035 1.2820e+07  404  389          - 1.2817e+07      -   7.7  164s
  5034  5476 1.2820e+07  458  381          - 1.2817e+07      -   7.5  169s
  5475  6138 1.2820e+07  491  369          - 1.2817e+07      -   7.4  174s
  6137  6613 1.2821e+07  569  360          - 1.2817e+07      -   7.0  179s
  6543  6613 1.2821e+07  564  351          - 1.2817e+07      -   7.3  180s
  6612  7192 1.2821e+07  627  356          - 1.2817e+07      -   7.3  185s
  7199  7751 1.2821e+07  696  349          - 1.2817e+07      -   7.2  191s
  7785  7753 1.2820e+07  476  441          - 1.2817e+07      -   7.0 1130s
  7787  7755 1.2819e+07  337  576          - 1.2817e+07      -   7.0 1135s
  7792  7758 1.2821e+07  700  499          - 1.2817e+07      -   7.0 1140s
  7800  7763 1.2819e+07  249  456          - 1.2818e+07      -   7.0 1145s
  7805  7767 1.2820e+07  550  480          - 1.2818e+07      -   7.0 1150s
  7811  7771 1.2818e+07  138  515          - 1.2818e+07      -   7.0 1155s
  7813  7772 1.2820e+07  451  519          - 1.2818e+07      -   7.0 1160s
  7817  7775 1.2821e+07  580  504          - 1.2818e+07      -   7.0 1166s
  7821  7777 1.2818e+07  132  505          - 1.2818e+07      -   7.0 1170s
  7823  7779 1.2819e+07  214  516          - 1.2818e+07      -   7.0 1175s
  7825  7780 1.2818e+07  109  520          - 1.2818e+07      -   7.0 1182s
  7828  7782 1.2820e+07  387  522          - 1.2818e+07      -   7.0 1185s
  7832  7785 1.2820e+07  448  511          - 1.2818e+07      -   7.0 1191s
  7838  7790 1.2821e+07  734  441          - 1.2818e+07      -  17.5 1243s
  7839  7791 1.2820e+07  498  569          - 1.2818e+07      -  17.5 1246s
  7849  7798 1.2819e+07  395  658          - 1.2818e+07      -  17.5 1251s
  7852  7800 1.2819e+07  276  483          - 1.2818e+07      -  17.5 1256s
  7855  7802 1.2818e+07  135  481          - 1.2818e+07      -  17.5 1260s
  7859  7804 1.2820e+07  692  486          - 1.2818e+07      -  17.5 1267s
  7861  7806 1.2819e+07  309  495          - 1.2818e+07      -  17.5 1271s
  7865  7808 1.2820e+07  485  505          - 1.2818e+07      -  17.5 1275s
  7870  7812 1.2821e+07  715  513          - 1.2818e+07      -  17.5 1281s
  7872  7813 1.2819e+07  146  508          - 1.2818e+07      -  17.5 1286s
  7874  7814 1.2818e+07  135  513          - 1.2818e+07      -  17.5 1290s
  7878  7817 1.2820e+07  466  510          - 1.2818e+07      -  17.4 1295s
  7880  7818 1.2819e+07  231  421          - 1.2818e+07      -  17.4 1301s
  7881  7819 1.2818e+07   13  421          - 1.2818e+07      -  17.4 1389s
H 7882  7431                    1.465903e+07 1.2818e+07  12.6%  38.2 1393s
  7884  7434 1.2818e+07   30  395 1.4659e+07 1.2818e+07  12.6%  38.2 1395s
H 7887  7061                    1.465777e+07 1.2818e+07  12.5%  38.1 1395s
  7904  7128 1.2819e+07   33  387 1.4658e+07 1.2818e+07  12.5%  38.1 1401s
  7961  7203 1.2819e+07   37  380 1.4658e+07 1.2818e+07  12.5%  38.0 1411s
  8055  7331 1.2819e+07   43  367 1.4658e+07 1.2818e+07  12.5%  37.8 1425s
H 8069  6972                    1.463894e+07 1.2818e+07  12.4%  37.8 1425s
  8214  7261 1.2819e+07   54  376 1.4639e+07 1.2818e+07  12.4%  38.2 1449s
H 8232  6919                    1.463357e+07 1.2818e+07  12.4%  38.2 1449s
H 8275  6586                    1.463129e+07 1.2818e+07  12.4%  38.1 1449s
H 8406  6239                    1.362249e+07 1.2818e+07  5.90%  38.0 1449s

Cutting planes:
  Gomory: 341
  Cover: 247
  Implied bound: 102
  Projected implied bound: 43
  Clique: 4
  MIR: 566
  Mixing: 10
  StrongCG: 4
  Flow cover: 442
  RLT: 22
  Relax-and-lift: 100

Explored 8551 nodes (324152 simplex iterations) in 1449.86 seconds (224.30 work units)
Thread count was 8 (of 8 available processors)

Solution count 4: 1.36225e+07 1.46336e+07 1.46578e+07 1.4659e+07 

Optimal solution found (tolerance 8.00e-02)
Best objective 1.362248920010e+07, best bound 1.281840284955e+07, gap 5.9026%

